webassembly/ejemplos_dzn/4/folder4_json_9.dzn
TERM = { '.', 'in_1', 'local_0', 'in_6', 'in_2', 'in_4', 'in_3', 'in_5', 'in_0'};
null = '.';
s = 4;
n = 12;
ndeps = 2;
max_registers_sz = 4;
NR = 1;
registers = [|'local_0', 'in_2'|];
dependencies = [|'i32.store16_0', 'i32.store8_2', |'i32.store8_2', 'i32.store_3'|];
GET_ENUM = { GET1, GET2, GET3, GET4, GET5};
SET_ENUM = { SET1, SET2, SET3, SET4, SET5};
TEE_ENUM = { TEE1, TEE2, TEE3, TEE4, TEE5};
N = 3;
OP = { 'i32.store16_0', 'i32.store8_2', 'i32.store_3' };
in_ops = [2, 2, 2 ];
out_ops = [0, 0, 0 ];
in1 = ['in_0', 'in_3', 'in_5' ];
in2 = ['in_1', 'in_4', 'in_6' ];
in3 = ['.', '.', '.' ];
out1 = ['.', '.', '.' ];
out2 = ['.', '.', '.' ];
out3 = ['.', '.', '.' ];
comm = [false, false, false ];
gas = [1, 1, 1 ];
sz = [1, 1, 1 ];
stor = [true, true, true ];
lb = [ 1, 1, 1 ];
ub = [ 4, 4, 4 ];
startstack = [ 'in_0', 'in_1', 'in_2', 'in_3', 'in_4', 'in_5', 'in_6', null, null, null, null, null ];
endstack = [ null, null, null, null, null, null, null, null, null, null, null, null ];
